param n := 2;

param m := 2;

param K := 50;

param a :=
1 	 0.317362
2 	 0.988616
;
 param A :=
[1, *, *]:  1	2	:=
1	0.159490	0.101896	
2	-0.239718	0.490669	

[2, *, *]:  1	2	:=
1	0.338466	-0.867330	
2	-0.470161	-0.259832	
;